(set-option :auto-config false)
(set-option :model true)

(set-option :smt.mbqi false)

(define-sort Str () Int)
(declare-fun strLen (Str) Int)
(declare-fun subString (Str Int Int) Str)
(declare-fun concatString (Str Str) Str)
(define-sort Elt () Int)
(define-sort LSet () (Array Elt Bool))
(define-fun smt_set_emp () LSet ((as const LSet) false))
(define-fun smt_set_sng ((x Elt)) LSet (store ((as const LSet) false) x true))
(define-fun smt_set_mem ((x Elt) (s LSet)) Bool (select s x))
(define-fun smt_set_add ((s LSet) (x Elt)) LSet (store s x true))
(define-fun smt_set_cup ((s1 LSet) (s2 LSet)) LSet ((_ map or) s1 s2))
(define-fun smt_set_cap ((s1 LSet) (s2 LSet)) LSet ((_ map and) s1 s2))
(define-fun smt_set_com ((s LSet)) LSet ((_ map not) s))
(define-fun smt_set_dif ((s1 LSet) (s2 LSet)) LSet (smt_set_cap s1 (smt_set_com s2)))
(define-fun smt_set_sub ((s1 LSet) (s2 LSet)) Bool (= smt_set_emp (smt_set_dif s1 s2)))
(define-sort Map () (Array Elt Elt))
(define-fun smt_map_sel ((m Map) (k Elt)) Elt (select m k))
(define-fun smt_map_sto ((m Map) (k Elt) (v Elt)) Map (store m k v))
(define-fun smt_map_cup ((m1 Map) (m2 Map)) Map ((_ map (+ (Elt Elt) Elt)) m1 m2))
(define-fun smt_map_prj ((s LSet) (m Map)) Map ((_ map (ite (Bool Elt Elt) Elt)) s m ((as const (Array Elt Elt)) 0)))
(define-fun smt_map_to_set ((m Map)) LSet ((_ map (> (Elt Elt) Bool)) m ((as const (Array Elt Elt)) 0)))
(define-fun smt_map_max ((m1 Map) (m2 Map)) Map (lambda ((i Int)) (ite (> (select m1 i) (select m2 i)) (select m1 i) (select m2 i))))
(define-fun smt_map_min ((m1 Map) (m2 Map)) Map (lambda ((i Int)) (ite (< (select m1 i) (select m2 i)) (select m1 i) (select m2 i))))
(define-fun smt_map_shift ((n Int) (m Map)) Map (lambda ((i Int)) (select m (- i n))))
(define-fun smt_map_def ((v Elt)) Map ((as const (Map)) v))
(define-fun bool_to_int ((b Bool)) Int (ite b 1 0))
(define-fun Z3_OP_MUL ((x Int) (y Int)) Int (* x y))
(define-fun Z3_OP_DIV ((x Int) (y Int)) Int (div x y))
(declare-fun papp7 () Int)
(declare-fun GHC.Base.id () Int)
(declare-fun InterfaceAdapters.Water.MH.Core.WaterLevelHeaders.RevenueRegionHeader () Int)
(declare-fun GHC.Types.KindRepTypeLitS () Int)
(declare-fun totalityError () Int)
(declare-fun Data.Attoparsec.Number.$36$WI () Int)
(declare-fun Data.ByteString.Internal.$36$WPS () Int)
(declare-fun Data.Attoparsec.Internal.Types.Done () Int)
(declare-fun GHC.Types.$91$$93$ () Int)
(declare-fun InterfaceAdapters.Water.MH.Core.WaterLevelHeaders.$36$fShowJustSectionHeaders () Int)
(declare-fun GHC.Real.divMod () Int)
(declare-fun InterfaceAdapters.Water.MH.Core.WaterLevelHeaders.$36$fShowRevenueRegionHeader () Int)
(declare-fun GHC.List.reverse () Int)
(declare-fun GHC.Float.$36$fShowDouble () Int)
(declare-fun GHC.List.scanl () Int)
(declare-fun GHC.Classes.min () Int)
(declare-fun GHC.Int.I64$35$ () Int)
(declare-fun GHC.Types.C$35$ () Int)
(declare-fun GHC.Real.$47$ () Int)
(declare-fun Data.ByteString.Internal.$36$tcByteString () Int)
(declare-fun Data.Attoparsec.Number.I () Int)
(declare-fun GHC.Word.W32$35$ () Int)
(declare-fun GHC.Types.$58$ () Int)
(declare-fun tail () Int)
(declare-fun GHC.IO.Handle.Types.$36$WFileHandle () Int)
(declare-fun Data.ByteString.Lazy.Internal.Chunk () Int)
(declare-fun InterfaceAdapters.Water.MH.Core.WaterLevelHeaders.RegionEntry () Int)
(declare-fun isJust () Int)
(declare-fun Data.Time.Clock.Internal.UTCTime.UTCTime () Int)
(declare-fun Data.Fixed.MkFixed () Int)
(declare-fun GHC.Real.div () Int)
(declare-fun Control.Applicative.WrapMonad () Int)
(declare-fun GHC.Classes.$62$$61$ () Int)
(declare-fun GHC.IO.Handle.Types.DuplexHandle () Int)
(declare-fun GHC.List.span () Int)
(declare-fun GHC.IO.Handle.Types.FileHandle () Int)
(declare-fun GHC.Word.W8$35$ () Int)
(declare-fun InterfaceAdapters.Water.MH.Core.WaterLevelHeaders.$36$fShowRegionWaterData () Int)
(declare-fun GHC.Tuple.$40$$44$$41$ () Int)
(declare-fun GHC.Real.$94$ () Int)
(declare-fun GHC.Classes.$61$$61$ () Int)
(declare-fun GHC.List.$33$$33$ () Int)
(declare-fun GHC.Base.$36$ () Int)
(declare-fun GHC.List.last () Int)
(declare-fun Data.Time.Calendar.Week.Thursday () Int)
(declare-fun GHC.Show.$36$fShow$91$$93$ () Int)
(declare-fun GHC.List.zipWith () Int)
(declare-fun papp5 () Int)
(declare-fun snd () Int)
(declare-fun GHC.Base.$43$$43$ () Int)
(declare-fun GHC.Maybe.Just () Int)
(declare-fun x_Tuple22 () Int)
(declare-fun GHC.Classes.$36$fOrdInt () Int)
(declare-fun GHC.Types.$36$tcDouble () Int)
(declare-fun GHC.Real.fromIntegral () Int)
(declare-fun GHC.IO.Exception.IOError () Int)
(declare-fun GHC.List.tail () Int)
(declare-fun GHC.Types.Module () Int)
(declare-fun GHC.Stack.Types.FreezeCallStack () Int)
(declare-fun GHC.Types.TrNameD () Int)
(declare-fun GHC.Types.TyCon () Int)
(declare-fun GHC.Show.showParen () Int)
(declare-fun fromJust () Int)
(declare-fun Data.Time.Calendar.CalendarDiffDays.CalendarDiffDays () Int)
(declare-fun Data.Foldable.length () Int)
(declare-fun GHC.Classes.not () Int)
(declare-fun Data.Time.LocalTime.Internal.ZonedTime.ZonedTime () Int)
(declare-fun GHC.List.iterate () Int)
(declare-fun Data.Text.Internal.Text () Int)
(declare-fun Data.Time.LocalTime.Internal.TimeOfDay.TimeOfDay () Int)
(declare-fun Data.ByteString.Internal.PS () Int)
(declare-fun GHC.Show.showsPrec () Int)
(declare-fun addrLen () Int)
(declare-fun GHC.Real.$36$W$58$$37$ () Int)
(declare-fun GHC.List.splitAt () Int)
(declare-fun GHC.Types.KindRepFun () Int)
(declare-fun papp3 () Int)
(declare-fun GHC.Show.$36$dmshow () Int)
(declare-fun GHC.List.scanl1 () Int)
(declare-fun GHC.Real.toInteger () Int)
(declare-fun InterfaceAdapters.Water.MH.Core.WaterLevelHeaders.$36$fShowPage8Page9 () Int)
(declare-fun Data.Foldable.null () Int)
(declare-fun InterfaceAdapters.Water.MH.Core.WaterLevelHeaders.JustSectionHeaders () Int)
(declare-fun GHC.Classes.$38$$38$ () Int)
(declare-fun GHC.Classes.$124$$124$ () Int)
(declare-fun GHC.List.dropWhile () Int)
(declare-fun Data.Time.LocalTime.Internal.TimeZone.TimeZone () Int)
(declare-fun Data.Scientific.Scientific () Int)
(declare-fun GHC.Show.$36$fShowInt () Int)
(declare-fun GHC.Enum.C$58$Bounded () Int)
(declare-fun Data.Time.Clock.Internal.UniversalTime.ModJulianDate () Int)
(declare-fun GHC.List.init () Int)
(declare-fun GHC.List.scanr1 () Int)
(declare-fun GHC.Types.True () Bool)
(declare-fun GHC.CString.unpackCString$35$ () Int)
(declare-fun GHC.List.break () Int)
(declare-fun GHC.Types.$36$WKindRepVar () Int)
(declare-fun GHC.Stack.Types.EmptyCallStack () Int)
(declare-fun x_Tuple33 () Int)
(declare-fun Data.Either.Right () Int)
(declare-fun Foreign.C.Types.CChar () Int)
(declare-fun GHC.Show.C$58$Show () Int)
(declare-fun GHC.Show.showCommaSpace () Int)
(declare-fun cast_as () Int)
(declare-fun GHC.Ptr.Ptr () Int)
(declare-fun InterfaceAdapters.Water.MH.Core.WaterLevelHeaders.TotalProjectFooter () Int)
(declare-fun Data.Text.Internal.$36$WText () Int)
(declare-fun GHC.Types.KindRepApp () Int)
(declare-fun GHC.List.head () Int)
(declare-fun Data.ByteString.Lazy.Internal.$36$WChunk () Int)
(declare-fun Data.Time.Calendar.Week.Monday () Int)
(declare-fun cast_as_int () Int)
(declare-fun Data.Time.Calendar.Week.Tuesday () Int)
(declare-fun GHC.Num.$43$ () Int)
(declare-fun InterfaceAdapters.Water.MH.Core.WaterLevelHeaders.Page8Page9 () Int)
(declare-fun len () Int)
(declare-fun GHC.Types.LT () Int)
(declare-fun GHC.Tuple.$40$$44$$44$$41$ () Int)
(declare-fun papp1 () Int)
(declare-fun InterfaceAdapters.Water.MH.Core.WaterLevelHeaders.$36$fShowPercentLiveStorage () Int)
(declare-fun GHC.List.drop () Int)
(declare-fun Data.Time.Calendar.Week.Friday () Int)
(declare-fun papp6 () Int)
(declare-fun GHC.Real.mod () Int)
(declare-fun GHC.Classes.C$58$IP () Int)
(declare-fun Data.Either.Left () Int)
(declare-fun Data.Time.Format.Locale.TimeLocale () Int)
(declare-fun Data.Functor.Const.Const () Int)
(declare-fun GHC.List.zip () Int)
(declare-fun liquid_internal_this () Int)
(declare-fun GHC.Real.fromRational () Int)
(declare-fun GHC.Classes.$62$ () Int)
(declare-fun GHC.Types.KindRepTyConApp () Int)
(declare-fun InterfaceAdapters.Water.MH.Core.WaterLevelHeaders.RegionWaterData () Int)
(declare-fun Data.Attoparsec.Number.D () Int)
(declare-fun GHC.Tuple.$40$$41$ () Int)
(declare-fun lqdc$35$$35$$36$select$35$$35$GHC.Maybe.Just$35$$35$1 () Int)
(declare-fun GHC.Types.KindRepVar () Int)
(declare-fun GHC.Types.I$35$ () Int)
(declare-fun GHC.Types.KindRepTypeLitD () Int)
(declare-fun Data.ByteString.Lazy.Internal.Empty () Int)
(declare-fun x_Tuple31 () Int)
(declare-fun GHC.Num.Integer.IS () Int)
(declare-fun GHC.Word.W16$35$ () Int)
(declare-fun Data.Time.LocalTime.Internal.CalendarDiffTime.CalendarDiffTime () Int)
(declare-fun GHC.Real.quot () Int)
(declare-fun Data.Tuple.fst () Int)
(declare-fun Data.ByteString.Internal.$36$fShowByteString () Int)
(declare-fun GHC.Word.W64$35$ () Int)
(declare-fun Data.Time.Calendar.Days.ModifiedJulianDay () Int)
(declare-fun GHC.Show.$36$dmshowList () Int)
(declare-fun GHC.Types.$36$tcInt () Int)
(declare-fun Data.Tuple.snd () Int)
(declare-fun GHC.Types.EQ () Int)
(declare-fun Data.Attoparsec.Number.$36$WD () Int)
(declare-fun GHC.Real.$58$$37$ () Int)
(declare-fun fst () Int)
(declare-fun GHC.List.takeWhile () Int)
(declare-fun GHC.Show.showString () Int)
(declare-fun GHC.Num.negate () Int)
(declare-fun GHC.Num.$45$ () Int)
(declare-fun GHC.Real.rem () Int)
(declare-fun GHC.Types.krep$36$$42$ () Int)
(declare-fun GHC.Classes.max () Int)
(declare-fun GHC.List.scanr () Int)
(declare-fun GHC.Real.recip () Int)
(declare-fun autolen () Int)
(declare-fun GHC.List.replicate () Int)
(declare-fun GHC.Base.. () Int)
(declare-fun GHC.List.take () Int)
(declare-fun Data.Time.Clock.Internal.DiffTime.MkDiffTime () Int)
(declare-fun InterfaceAdapters.Water.MH.Core.WaterLevelHeaders.SectionHeaders () Int)
(declare-fun papp4 () Int)
(declare-fun Data.Time.Calendar.Week.Saturday () Int)
(declare-fun GHC.Types.$36$WKindRepTYPE () Int)
(declare-fun GHC.Stack.Types.PushCallStack () Int)
(declare-fun Data.Time.Calendar.Week.Wednesday () Int)
(declare-fun GHC.Real.quotRem () Int)
(declare-fun GHC.Classes.$60$$61$ () Int)
(declare-fun InterfaceAdapters.Water.MH.Core.WaterLevelHeaders.PercentLiveStorage () Int)
(declare-fun GHC.Num.fromInteger () Int)
(declare-fun GHC.Types.KindRepTYPE () Int)
(declare-fun GHC.Classes.$60$ () Int)
(declare-fun GHC.List.filter () Int)
(declare-fun x_Tuple21 () Int)
(declare-fun GHC.List.repeat () Int)
(declare-fun head () Int)
(declare-fun GHC.Maybe.Nothing () Int)
(declare-fun InterfaceAdapters.Water.MH.Core.WaterLevelHeaders.$36$fShowCategoryProjects () Int)
(declare-fun Data.Time.LocalTime.Internal.LocalTime.LocalTime () Int)
(declare-fun GHC.Types.D$35$ () Int)
(declare-fun Data.Time.Calendar.Week.Sunday () Int)
(declare-fun GHC.Num.Integer.IP () Int)
(declare-fun Control.Applicative.WrapArrow () Int)
(declare-fun InterfaceAdapters.Water.MH.Core.WaterLevelHeaders.$36$fShowSectionHeaders () Int)
(declare-fun GHC.Base.map () Int)
(declare-fun x_Tuple32 () Int)
(declare-fun GHC.Err.error () Int)
(declare-fun InterfaceAdapters.Water.MH.Core.WaterLevelHeaders.$36$fShowTotalProjectFooter () Int)
(declare-fun GHC.Classes.compare () Int)
(declare-fun GHC.Types.TrNameS () Int)
(declare-fun GHC.Types.$36$tc$91$$93$ () Int)
(declare-fun GHC.Num.Integer.IN () Int)
(declare-fun InterfaceAdapters.Water.MH.Core.WaterLevelHeaders.$36$fShowRegionEntry () Int)
(declare-fun InterfaceAdapters.Water.MH.Core.WaterLevelHeaders.CategoryProjects () Int)
(declare-fun GHC.Num.$42$ () Int)
(declare-fun Data.Attoparsec.Internal.Types.Fail () Int)
(declare-fun GHC.Types.False () Bool)
(declare-fun Data.Scientific.$36$WScientific () Int)
(declare-fun Control.Applicative.ZipList () Int)
(declare-fun papp2 () Int)
(declare-fun Data.Time.Clock.Internal.NominalDiffTime.MkNominalDiffTime () Int)
(declare-fun GHC.Classes.$47$$61$ () Int)
(declare-fun GHC.List.cycle () Int)
(declare-fun GHC.IO.Handle.Types.$36$WDuplexHandle () Int)
(declare-fun GHC.Types.GT () Int)
(declare-fun apply$35$$35$21 (Int (_ BitVec 32)) Bool)
(declare-fun apply$35$$35$1 (Int Int) Bool)
(declare-fun apply$35$$35$4 (Int Int) (_ BitVec 32))
(declare-fun apply$35$$35$7 (Int Bool) Real)
(declare-fun apply$35$$35$24 (Int (_ BitVec 32)) (_ BitVec 32))
(declare-fun apply$35$$35$12 (Int Real) Real)
(declare-fun apply$35$$35$23 (Int (_ BitVec 32)) Str)
(declare-fun apply$35$$35$16 (Int Str) Bool)
(declare-fun apply$35$$35$5 (Int Bool) Int)
(declare-fun apply$35$$35$11 (Int Real) Bool)
(declare-fun apply$35$$35$18 (Int Str) Str)
(declare-fun apply$35$$35$19 (Int Str) (_ BitVec 32))
(declare-fun apply$35$$35$2 (Int Int) Real)
(declare-fun apply$35$$35$13 (Int Real) Str)
(declare-fun apply$35$$35$20 (Int (_ BitVec 32)) Int)
(declare-fun apply$35$$35$15 (Int Str) Int)
(declare-fun apply$35$$35$0 (Int Int) Int)
(declare-fun apply$35$$35$8 (Int Bool) Str)
(declare-fun apply$35$$35$9 (Int Bool) (_ BitVec 32))
(declare-fun apply$35$$35$22 (Int (_ BitVec 32)) Real)
(declare-fun apply$35$$35$14 (Int Real) (_ BitVec 32))
(declare-fun apply$35$$35$17 (Int Str) Real)
(declare-fun apply$35$$35$3 (Int Int) Str)
(declare-fun apply$35$$35$6 (Int Bool) Bool)
(declare-fun apply$35$$35$10 (Int Real) Int)
(declare-fun coerce$35$$35$21 ((_ BitVec 32)) Bool)
(declare-fun coerce$35$$35$1 (Int) Bool)
(declare-fun coerce$35$$35$4 (Int) (_ BitVec 32))
(declare-fun coerce$35$$35$7 (Bool) Real)
(declare-fun coerce$35$$35$24 ((_ BitVec 32)) (_ BitVec 32))
(declare-fun coerce$35$$35$12 (Real) Real)
(declare-fun coerce$35$$35$23 ((_ BitVec 32)) Str)
(declare-fun coerce$35$$35$16 (Str) Bool)
(declare-fun coerce$35$$35$5 (Bool) Int)
(declare-fun coerce$35$$35$11 (Real) Bool)
(declare-fun coerce$35$$35$18 (Str) Str)
(declare-fun coerce$35$$35$19 (Str) (_ BitVec 32))
(declare-fun coerce$35$$35$2 (Int) Real)
(declare-fun coerce$35$$35$13 (Real) Str)
(declare-fun coerce$35$$35$20 ((_ BitVec 32)) Int)
(declare-fun coerce$35$$35$15 (Str) Int)
(declare-fun coerce$35$$35$0 (Int) Int)
(declare-fun coerce$35$$35$8 (Bool) Str)
(declare-fun coerce$35$$35$9 (Bool) (_ BitVec 32))
(declare-fun coerce$35$$35$22 ((_ BitVec 32)) Real)
(declare-fun coerce$35$$35$14 (Real) (_ BitVec 32))
(declare-fun coerce$35$$35$17 (Str) Real)
(declare-fun coerce$35$$35$3 (Int) Str)
(declare-fun coerce$35$$35$6 (Bool) Bool)
(declare-fun coerce$35$$35$10 (Real) Int)
(declare-fun smt_lambda$35$$35$21 ((_ BitVec 32) Bool) Int)
(declare-fun smt_lambda$35$$35$1 (Int Bool) Int)
(declare-fun smt_lambda$35$$35$4 (Int (_ BitVec 32)) Int)
(declare-fun smt_lambda$35$$35$7 (Bool Real) Int)
(declare-fun smt_lambda$35$$35$24 ((_ BitVec 32) (_ BitVec 32)) Int)
(declare-fun smt_lambda$35$$35$12 (Real Real) Int)
(declare-fun smt_lambda$35$$35$23 ((_ BitVec 32) Str) Int)
(declare-fun smt_lambda$35$$35$16 (Str Bool) Int)
(declare-fun smt_lambda$35$$35$5 (Bool Int) Int)
(declare-fun smt_lambda$35$$35$11 (Real Bool) Int)
(declare-fun smt_lambda$35$$35$18 (Str Str) Int)
(declare-fun smt_lambda$35$$35$19 (Str (_ BitVec 32)) Int)
(declare-fun smt_lambda$35$$35$2 (Int Real) Int)
(declare-fun smt_lambda$35$$35$13 (Real Str) Int)
(declare-fun smt_lambda$35$$35$20 ((_ BitVec 32) Int) Int)
(declare-fun smt_lambda$35$$35$15 (Str Int) Int)
(declare-fun smt_lambda$35$$35$0 (Int Int) Int)
(declare-fun smt_lambda$35$$35$8 (Bool Str) Int)
(declare-fun smt_lambda$35$$35$9 (Bool (_ BitVec 32)) Int)
(declare-fun smt_lambda$35$$35$22 ((_ BitVec 32) Real) Int)
(declare-fun smt_lambda$35$$35$14 (Real (_ BitVec 32)) Int)
(declare-fun smt_lambda$35$$35$17 (Str Real) Int)
(declare-fun smt_lambda$35$$35$3 (Int Str) Int)
(declare-fun smt_lambda$35$$35$6 (Bool Bool) Int)
(declare-fun smt_lambda$35$$35$10 (Real Int) Int)
(declare-fun lam_arg$35$$35$1$35$$35$5 () Bool)
(declare-fun lam_arg$35$$35$2$35$$35$5 () Bool)
(declare-fun lam_arg$35$$35$3$35$$35$5 () Bool)
(declare-fun lam_arg$35$$35$4$35$$35$5 () Bool)
(declare-fun lam_arg$35$$35$5$35$$35$5 () Bool)
(declare-fun lam_arg$35$$35$6$35$$35$5 () Bool)
(declare-fun lam_arg$35$$35$7$35$$35$5 () Bool)
(declare-fun lam_arg$35$$35$1$35$$35$20 () (_ BitVec 32))
(declare-fun lam_arg$35$$35$2$35$$35$20 () (_ BitVec 32))
(declare-fun lam_arg$35$$35$3$35$$35$20 () (_ BitVec 32))
(declare-fun lam_arg$35$$35$4$35$$35$20 () (_ BitVec 32))
(declare-fun lam_arg$35$$35$5$35$$35$20 () (_ BitVec 32))
(declare-fun lam_arg$35$$35$6$35$$35$20 () (_ BitVec 32))
(declare-fun lam_arg$35$$35$7$35$$35$20 () (_ BitVec 32))
(declare-fun lam_arg$35$$35$1$35$$35$15 () Str)
(declare-fun lam_arg$35$$35$2$35$$35$15 () Str)
(declare-fun lam_arg$35$$35$3$35$$35$15 () Str)
(declare-fun lam_arg$35$$35$4$35$$35$15 () Str)
(declare-fun lam_arg$35$$35$5$35$$35$15 () Str)
(declare-fun lam_arg$35$$35$6$35$$35$15 () Str)
(declare-fun lam_arg$35$$35$7$35$$35$15 () Str)
(declare-fun lam_arg$35$$35$1$35$$35$0 () Int)
(declare-fun lam_arg$35$$35$2$35$$35$0 () Int)
(declare-fun lam_arg$35$$35$3$35$$35$0 () Int)
(declare-fun lam_arg$35$$35$4$35$$35$0 () Int)
(declare-fun lam_arg$35$$35$5$35$$35$0 () Int)
(declare-fun lam_arg$35$$35$6$35$$35$0 () Int)
(declare-fun lam_arg$35$$35$7$35$$35$0 () Int)
(declare-fun lam_arg$35$$35$1$35$$35$10 () Real)
(declare-fun lam_arg$35$$35$2$35$$35$10 () Real)
(declare-fun lam_arg$35$$35$3$35$$35$10 () Real)
(declare-fun lam_arg$35$$35$4$35$$35$10 () Real)
(declare-fun lam_arg$35$$35$5$35$$35$10 () Real)
(declare-fun lam_arg$35$$35$6$35$$35$10 () Real)
(declare-fun lam_arg$35$$35$7$35$$35$10 () Real)











(assert (distinct GHC.Types.GT GHC.Types.EQ GHC.Types.LT))

(assert (distinct Data.Time.Calendar.Week.Sunday Data.Time.Calendar.Week.Wednesday Data.Time.Calendar.Week.Saturday Data.Time.Calendar.Week.Friday Data.Time.Calendar.Week.Tuesday Data.Time.Calendar.Week.Monday Data.Time.Calendar.Week.Thursday))
(assert (distinct GHC.Types.False GHC.Types.True))




(push 1)
(push 1)
(pop 1)
(pop 1)
(exit)
